0000000000000000
0000000000000000
0000000000000000
0000001110000000
0000111111100000
0001110011100000
0001100011100000
0000000001110000
0000111111111000
0001111011111000
0001110011111000
0000000000000000
0000000000000000
0000000000000000
0000000000000000
0000000000000000